897726
21 3 23621
3 18 26533
18 39 13572
39 26 17541
26 17 12606
17 1 16361
1 34 10541
34 9 6355
9 20 5744
20 0 6578
0 10 8732
10 7 17581
7 14 26227
14 15 36816
15 2 71701
2 13 30026
13 16 42391
16 8 102410
8 5 47658
5 35 22446
35 6 11794
6 12 23211
12 27 6411
27 28 17517
28 37 745
37 22 7449
22 30 11949
30 29 10287
29 36 941
36 38 6534
38 24 4093
24 33 30137
33 11 39715
11 32 3967
32 25 15458
25 19 24941
19 31 24202
31 4 3290
4 23 63665
23 21 45980
